
Gurobi 7.5.1 (linux64, Python) logging started Tue Dec 12 20:07:27 2017

Academic license - for non-commercial use only

Gurobi 7.5.1 (linux64, Python) logging started Tue Dec 12 20:13:19 2017

Academic license - for non-commercial use only

Gurobi 7.5.1 (linux64, Python) logging started Wed Dec 13 15:52:07 2017

Academic license - for non-commercial use only

Gurobi 7.5.1 (linux64, Python) logging started Wed Dec 13 15:52:54 2017

Academic license - for non-commercial use only

Gurobi 7.5.1 (linux64, Python) logging started Wed Dec 13 17:32:04 2017

Academic license - for non-commercial use only

Gurobi 7.5.1 (linux64, Python) logging started Wed Dec 13 17:36:50 2017

Academic license - for non-commercial use only

Gurobi 7.5.1 (linux64, Python) logging started Wed Dec 13 18:24:06 2017

Academic license - for non-commercial use only

Gurobi 7.5.1 (linux64, Python) logging started Wed Dec 13 18:41:30 2017

Academic license - for non-commercial use only

Gurobi 7.5.1 (linux64, Python) logging started Wed Dec 13 20:01:17 2017

Academic license - for non-commercial use only

Gurobi 7.5.1 (linux64, Python) logging started Wed Dec 13 20:08:31 2017

Academic license - for non-commercial use only

Gurobi 7.5.1 (linux64, Python) logging started Wed Dec 13 20:33:37 2017

Academic license - for non-commercial use only
